c nIsolatedPIs 0
c maxPI 8
p cnf 28 61
c gate 9 -1 7 0
-1 -9 0
7 -9 0
1 -7 9 0
c gate 10 2 -6 0
2 -10 0
-6 -10 0
-2 6 10 0
c gate 11 -8 10 0
-8 -11 0
10 -11 0
8 -10 11 0
c gate 12 -9 11 0
-9 -12 0
11 -12 0
9 -11 12 0
c gate 13 5 7 0
5 -13 0
7 -13 0
-5 -7 13 0
c gate 14 -3 -13 0
-3 -14 0
-13 -14 0
3 13 14 0
c gate 15 -1 5 0
-1 -15 0
5 -15 0
1 -5 15 0
c gate 16 -7 -15 0
-7 -16 0
-15 -16 0
7 15 16 0
c gate 17 3 13 0
3 -17 0
13 -17 0
-3 -13 17 0
c gate 18 -16 -17 0
-16 -18 0
-17 -18 0
16 17 18 0
c gate 19 -14 18 0
-14 -19 0
18 -19 0
14 -18 19 0
c gate 20 12 19 0
12 -20 0
19 -20 0
-12 -19 20 0
c gate 21 1 -6 0
1 -21 0
-6 -21 0
-1 6 21 0
c gate 22 -1 6 0
-1 -22 0
6 -22 0
1 -6 22 0
c gate 23 -21 -22 0
-21 -23 0
-22 -23 0
21 22 23 0
c gate 24 -2 8 0
-2 -24 0
8 -24 0
2 -8 24 0
c gate 25 17 24 0
17 -25 0
24 -25 0
-17 -24 25 0
c gate 26 -23 25 0
-23 -26 0
25 -26 0
23 -25 26 0
c gate 27 -20 -26 0
-20 -27 0
-26 -27 0
20 26 27 0
c gate 28 4 -27 0
4 -28 0
-27 -28 0
-4 27 28 0
c PO
28 0
